\ Model Network Flow Problem with Time-Dependent Demand
\ LP format - for model browsing. Use MPS format to capture full model detail.
Minimize
  4.557811454554622 flow[0,0] + 4.557811454554622 flow[0,1]
   + 4.557811454554622 flow[0,2] + 4.557811454554622 flow[0,3]
   + 4.557811454554622 flow[0,4] + 5.844636489981847 flow[1,0]
   + 5.844636489981847 flow[1,1] + 5.844636489981847 flow[1,2]
   + 5.844636489981847 flow[1,3] + 5.844636489981847 flow[1,4]
   + 5.145424931074202 flow[2,0] + 5.145424931074202 flow[2,1]
   + 5.145424931074202 flow[2,2] + 5.145424931074202 flow[2,3]
   + 5.145424931074202 flow[2,4] + 2.302307079325106 flow[3,0]
   + 2.302307079325106 flow[3,1] + 2.302307079325106 flow[3,2]
   + 2.302307079325106 flow[3,3] + 2.302307079325106 flow[3,4]
   + 9.486009178097635 flow[4,0] + 9.486009178097635 flow[4,1]
   + 9.486009178097635 flow[4,2] + 9.486009178097635 flow[4,3]
   + 9.486009178097635 flow[4,4] + 8.534949891046718 flow[5,0]
   + 8.534949891046718 flow[5,1] + 8.534949891046718 flow[5,2]
   + 8.534949891046718 flow[5,3] + 8.534949891046718 flow[5,4]
   + 5.498493985234411 flow[6,0] + 5.498493985234411 flow[6,1]
   + 5.498493985234411 flow[6,2] + 5.498493985234411 flow[6,3]
   + 5.498493985234411 flow[6,4] + 5.102060774913641 flow[7,0]
   + 5.102060774913641 flow[7,1] + 5.102060774913641 flow[7,2]
   + 5.102060774913641 flow[7,3] + 5.102060774913641 flow[7,4]
   + 6.413188722361142 flow[8,0] + 6.413188722361142 flow[8,1]
   + 6.413188722361142 flow[8,2] + 6.413188722361142 flow[8,3]
   + 6.413188722361142 flow[8,4] + 2.31283628734603 flow[9,0]
   + 2.31283628734603 flow[9,1] + 2.31283628734603 flow[9,2]
   + 2.31283628734603 flow[9,3] + 2.31283628734603 flow[9,4]
   + 6.98815633835008 flow[10,0] + 6.98815633835008 flow[10,1]
   + 6.98815633835008 flow[10,2] + 6.98815633835008 flow[10,3]
   + 6.98815633835008 flow[10,4] + 8.211625795437108 flow[11,0]
   + 8.211625795437108 flow[11,1] + 8.211625795437108 flow[11,2]
   + 8.211625795437108 flow[11,3] + 8.211625795437108 flow[11,4]
   + 7.32670128575783 flow[12,0] + 7.32670128575783 flow[12,1]
   + 7.32670128575783 flow[12,2] + 7.32670128575783 flow[12,3]
   + 7.32670128575783 flow[12,4] + 6.389922774443434 flow[13,0]
   + 6.389922774443434 flow[13,1] + 6.389922774443434 flow[13,2]
   + 6.389922774443434 flow[13,3] + 6.389922774443434 flow[13,4]
Subject To
 cap_0_t0: flow[0,0] <= 958.6617569787471
 cap_0_t1: flow[0,1] <= 958.6617569787471
 cap_0_t2: flow[0,2] <= 958.6617569787471
 cap_0_t3: flow[0,3] <= 958.6617569787471
 cap_0_t4: flow[0,4] <= 958.6617569787471
 cap_1_t0: flow[1,0] <= 619.2251575233496
 cap_1_t1: flow[1,1] <= 619.2251575233496
 cap_1_t2: flow[1,2] <= 619.2251575233496
 cap_1_t3: flow[1,3] <= 619.2251575233496
 cap_1_t4: flow[1,4] <= 619.2251575233496
 cap_2_t0: flow[2,0] <= 101.5106423178242
 cap_2_t1: flow[2,1] <= 101.5106423178242
 cap_2_t2: flow[2,2] <= 101.5106423178242
 cap_2_t3: flow[2,3] <= 101.5106423178242
 cap_2_t4: flow[2,4] <= 101.5106423178242
 cap_3_t0: flow[3,0] <= 155.696442954643
 cap_3_t1: flow[3,1] <= 155.696442954643
 cap_3_t2: flow[3,2] <= 155.696442954643
 cap_3_t3: flow[3,3] <= 155.696442954643
 cap_3_t4: flow[3,4] <= 155.696442954643
 cap_4_t0: flow[4,0] <= 582.0427363430849
 cap_4_t1: flow[4,1] <= 582.0427363430849
 cap_4_t2: flow[4,2] <= 582.0427363430849
 cap_4_t3: flow[4,3] <= 582.0427363430849
 cap_4_t4: flow[4,4] <= 582.0427363430849
 cap_5_t0: flow[5,0] <= 862.4067369798643
 cap_5_t1: flow[5,1] <= 862.4067369798643
 cap_5_t2: flow[5,2] <= 862.4067369798643
 cap_5_t3: flow[5,3] <= 862.4067369798643
 cap_5_t4: flow[5,4] <= 862.4067369798643
 cap_6_t0: flow[6,0] <= 981.8645483354378
 cap_6_t1: flow[6,1] <= 981.8645483354378
 cap_6_t2: flow[6,2] <= 981.8645483354378
 cap_6_t3: flow[6,3] <= 981.8645483354378
 cap_6_t4: flow[6,4] <= 981.8645483354378
 cap_7_t0: flow[7,0] <= 387.6786902111233
 cap_7_t1: flow[7,1] <= 387.6786902111233
 cap_7_t2: flow[7,2] <= 387.6786902111233
 cap_7_t3: flow[7,3] <= 387.6786902111233
 cap_7_t4: flow[7,4] <= 387.6786902111233
 cap_8_t0: flow[8,0] <= 428.5214581919187
 cap_8_t1: flow[8,1] <= 428.5214581919187
 cap_8_t2: flow[8,2] <= 428.5214581919187
 cap_8_t3: flow[8,3] <= 428.5214581919187
 cap_8_t4: flow[8,4] <= 428.5214581919187
 cap_9_t0: flow[9,0] <= 711.3719533423531
 cap_9_t1: flow[9,1] <= 711.3719533423531
 cap_9_t2: flow[9,2] <= 711.3719533423531
 cap_9_t3: flow[9,3] <= 711.3719533423531
 cap_9_t4: flow[9,4] <= 711.3719533423531
 cap_10_t0: flow[10,0] <= 816.9087723916517
 cap_10_t1: flow[10,1] <= 816.9087723916517
 cap_10_t2: flow[10,2] <= 816.9087723916517
 cap_10_t3: flow[10,3] <= 816.9087723916517
 cap_10_t4: flow[10,4] <= 816.9087723916517
 cap_11_t0: flow[11,0] <= 567.7762441141047
 cap_11_t1: flow[11,1] <= 567.7762441141047
 cap_11_t2: flow[11,2] <= 567.7762441141047
 cap_11_t3: flow[11,3] <= 567.7762441141047
 cap_11_t4: flow[11,4] <= 567.7762441141047
 cap_12_t0: flow[12,0] <= 641.4558748282371
 cap_12_t1: flow[12,1] <= 641.4558748282371
 cap_12_t2: flow[12,2] <= 641.4558748282371
 cap_12_t3: flow[12,3] <= 641.4558748282371
 cap_12_t4: flow[12,4] <= 641.4558748282371
 cap_13_t0: flow[13,0] <= 299.9274015123198
 cap_13_t1: flow[13,1] <= 299.9274015123198
 cap_13_t2: flow[13,2] <= 299.9274015123198
 cap_13_t3: flow[13,3] <= 299.9274015123198
 cap_13_t4: flow[13,4] <= 299.9274015123198
 node_0_t0: - flow[1,0] + flow[3,0] + flow[5,0] + flow[8,0] + flow[11,0]
   = 32.86873043753583
 node_0_t1: - flow[1,1] + flow[3,1] + flow[5,1] + flow[8,1] + flow[11,1]
   = -0.4974474821276189
 node_0_t2: - flow[1,2] + flow[3,2] + flow[5,2] + flow[8,2] + flow[11,2]
   = 20.41404766328311
 node_0_t3: - flow[1,3] + flow[3,3] + flow[5,3] + flow[8,3] + flow[11,3]
   = -12.32913728146809
 node_0_t4: - flow[1,4] + flow[3,4] + flow[5,4] + flow[8,4] + flow[11,4]
   = 48.11427951619787
 node_1_t0: - flow[2,0] + flow[10,0] - flow[13,0] = -16.6855453307165
 node_1_t1: - flow[2,1] + flow[10,1] - flow[13,1] = 32.78846943137519
 node_1_t2: - flow[2,2] + flow[10,2] - flow[13,2] = -28.93869143123185
 node_1_t3: - flow[2,3] + flow[10,3] - flow[13,3] = 23.2658102619893
 node_1_t4: - flow[2,4] + flow[10,4] - flow[13,4] = 31.0418652184842
 node_2_t0: flow[4,0] - flow[8,0] - flow[9,0] + flow[12,0] + flow[13,0]
   = 20.04074136594353
 node_2_t1: flow[4,1] - flow[8,1] - flow[9,1] + flow[12,1] + flow[13,1]
   = -44.74336957696241
 node_2_t2: flow[4,2] - flow[8,2] - flow[9,2] + flow[12,2] + flow[13,2]
   = 36.54318956735636
 node_2_t3: flow[4,3] - flow[8,3] - flow[9,3] + flow[12,3] + flow[13,3]
   = -32.09797676147611
 node_2_t4: flow[4,4] - flow[8,4] - flow[9,4] + flow[12,4] + flow[13,4]
   = -1.249534839842127
 node_3_t0: - flow[0,0] - flow[3,0] + flow[6,0] + flow[7,0]
   = -10.81921361453699
 node_3_t1: - flow[0,1] - flow[3,1] + flow[6,1] + flow[7,1]
   = 48.43895421550583
 node_3_t2: - flow[0,2] - flow[3,2] + flow[6,2] + flow[7,2]
   = 15.92503109006313
 node_3_t3: - flow[0,3] - flow[3,3] + flow[6,3] + flow[7,3]
   = 34.85182461082429
 node_3_t4: - flow[0,4] - flow[3,4] + flow[6,4] + flow[7,4]
   = 49.10632149991827
 node_4_t0: flow[2,0] - flow[5,0] - flow[7,0] - flow[10,0] - flow[12,0]
   = 4.794290954087352
 node_4_t1: flow[2,1] - flow[5,1] - flow[7,1] - flow[10,1] - flow[12,1]
   = -16.25898523447107
 node_4_t2: flow[2,2] - flow[5,2] - flow[7,2] - flow[10,2] - flow[12,2]
   = 17.78986861811698
 node_4_t3: flow[2,3] - flow[5,3] - flow[7,3] - flow[10,3] - flow[12,3]
   = 49.03142999731537
 node_4_t4: flow[2,4] - flow[5,4] - flow[7,4] - flow[10,4] - flow[12,4]
   = 25.77141850543224
 node_5_t0: flow[0,0] + flow[1,0] - flow[4,0] - flow[6,0] + flow[9,0]
   - flow[11,0] = -10.89369053257763
 node_5_t1: flow[0,1] + flow[1,1] - flow[4,1] - flow[6,1] + flow[9,1]
   - flow[11,1] = 2.784443443085692
 node_5_t2: flow[0,2] + flow[1,2] - flow[4,2] - flow[6,2] + flow[9,2]
   - flow[11,2] = -21.69601300182635
 node_5_t3: flow[0,3] + flow[1,3] - flow[4,3] - flow[6,3] + flow[9,3]
   - flow[11,3] = 19.63763156761512
 node_5_t4: flow[0,4] + flow[1,4] - flow[4,4] - flow[6,4] + flow[9,4]
   - flow[11,4] = -30.49078233457456
Bounds
End
